150
[30,31,32,33,34,35,36,37,38,39,40,41,42,43,44,45,46,47,48,49,50,51,52,53,54,55,56,57,58,59,60,61,62,63,64,65,66,67,68,69,70,71,72,73,74,75,76,77,78,79,80,81,82,83,84,85,86,87,88,89,90,91,92,93,94,95,96,97,98,99,100,101,102,103,104,105]
[11,11,10,9,7,13,13,21,18,9,13,19,9,14,16,5,24,12,4,14,12,15,14,17,14,8,9,12,15,12,10,17,17,14,20,19,17,8,19,19,13,10,9,15,11,18,17,18,14,13,19,14,10,9,11,10,13,8,11,9,19,17,12,12,7,10,17,10,9,15,6,22,13,16,9,14]
